; benchmark generated from python API
(set-info :status unknown)
(declare-fun cell_1_3 () Int)
(declare-fun cell_2_4 () Int)
(declare-fun cell_3_8 () Int)
(declare-fun cell_4_1 () Int)
(declare-fun cell_5_9 () Int)
(declare-fun cell_6_6 () Int)
(declare-fun cell_7_2 () Int)
(declare-fun cell_1_1 () Int)
(declare-fun cell_2_1 () Int)
(declare-fun cell_3_1 () Int)
(declare-fun cell_5_1 () Int)
(declare-fun cell_6_1 () Int)
(declare-fun cell_7_1 () Int)
(declare-fun cell_8_1 () Int)
(declare-fun cell_9_1 () Int)
(declare-fun cell_1_2 () Int)
(declare-fun cell_2_2 () Int)
(declare-fun cell_3_2 () Int)
(declare-fun cell_4_2 () Int)
(declare-fun cell_5_2 () Int)
(declare-fun cell_6_2 () Int)
(declare-fun cell_8_2 () Int)
(declare-fun cell_9_2 () Int)
(declare-fun cell_2_3 () Int)
(declare-fun cell_3_3 () Int)
(declare-fun cell_4_3 () Int)
(declare-fun cell_5_3 () Int)
(declare-fun cell_6_3 () Int)
(declare-fun cell_7_3 () Int)
(declare-fun cell_8_3 () Int)
(declare-fun cell_9_3 () Int)
(declare-fun cell_1_4 () Int)
(declare-fun cell_3_4 () Int)
(declare-fun cell_4_4 () Int)
(declare-fun cell_5_4 () Int)
(declare-fun cell_6_4 () Int)
(declare-fun cell_7_4 () Int)
(declare-fun cell_8_4 () Int)
(declare-fun cell_9_4 () Int)
(declare-fun cell_1_5 () Int)
(declare-fun cell_2_5 () Int)
(declare-fun cell_3_5 () Int)
(declare-fun cell_4_5 () Int)
(declare-fun cell_5_5 () Int)
(declare-fun cell_6_5 () Int)
(declare-fun cell_7_5 () Int)
(declare-fun cell_8_5 () Int)
(declare-fun cell_9_5 () Int)
(declare-fun cell_1_6 () Int)
(declare-fun cell_2_6 () Int)
(declare-fun cell_3_6 () Int)
(declare-fun cell_4_6 () Int)
(declare-fun cell_5_6 () Int)
(declare-fun cell_7_6 () Int)
(declare-fun cell_8_6 () Int)
(declare-fun cell_9_6 () Int)
(declare-fun cell_1_7 () Int)
(declare-fun cell_2_7 () Int)
(declare-fun cell_3_7 () Int)
(declare-fun cell_4_7 () Int)
(declare-fun cell_5_7 () Int)
(declare-fun cell_6_7 () Int)
(declare-fun cell_7_7 () Int)
(declare-fun cell_8_7 () Int)
(declare-fun cell_9_7 () Int)
(declare-fun cell_1_8 () Int)
(declare-fun cell_2_8 () Int)
(declare-fun cell_4_8 () Int)
(declare-fun cell_5_8 () Int)
(declare-fun cell_6_8 () Int)
(declare-fun cell_7_8 () Int)
(declare-fun cell_8_8 () Int)
(declare-fun cell_9_8 () Int)
(declare-fun cell_1_9 () Int)
(declare-fun cell_2_9 () Int)
(declare-fun cell_3_9 () Int)
(declare-fun cell_4_9 () Int)
(declare-fun cell_6_9 () Int)
(declare-fun cell_7_9 () Int)
(declare-fun cell_8_9 () Int)
(declare-fun cell_9_9 () Int)
(assert
 (= cell_1_3 1))
(assert
 (= cell_2_4 1))
(assert
 (= cell_3_8 1))
(assert
 (= cell_4_1 1))
(assert
 (= cell_5_9 1))
(assert
 (= cell_6_6 1))
(assert
 (= cell_7_2 1))
(assert
 (let (($x8813 (= cell_1_1 9)))
 (let (($x8860 (= cell_1_1 8)))
 (let (($x2702 (= cell_1_1 7)))
 (let (($x5501 (= cell_1_1 6)))
 (let (($x4175 (= cell_1_1 5)))
 (let (($x3820 (= cell_1_1 4)))
 (let (($x8488 (= cell_1_1 3)))
 (let (($x7576 (= cell_1_1 2)))
 (let (($x4391 (= cell_1_1 1)))
 (or $x4391 $x7576 $x8488 $x3820 $x4175 $x5501 $x2702 $x8860 $x8813)))))))))))
(assert
 (let (($x4413 (= cell_2_1 9)))
 (let (($x1045 (= cell_2_1 8)))
 (let (($x8792 (= cell_2_1 7)))
 (let (($x9438 (= cell_2_1 6)))
 (let (($x5859 (= cell_2_1 5)))
 (let (($x892 (= cell_2_1 4)))
 (let (($x6835 (= cell_2_1 3)))
 (let (($x7994 (= cell_2_1 2)))
 (let (($x4101 (= cell_2_1 1)))
 (or $x4101 $x7994 $x6835 $x892 $x5859 $x9438 $x8792 $x1045 $x4413)))))))))))
(assert
 (let (($x6742 (= cell_3_1 9)))
 (let (($x8511 (= cell_3_1 8)))
 (let (($x2990 (= cell_3_1 7)))
 (let (($x3695 (= cell_3_1 6)))
 (let (($x8815 (= cell_3_1 5)))
 (let (($x10239 (= cell_3_1 4)))
 (let (($x2403 (= cell_3_1 3)))
 (let (($x2344 (= cell_3_1 2)))
 (let (($x9810 (= cell_3_1 1)))
 (or $x9810 $x2344 $x2403 $x10239 $x8815 $x3695 $x2990 $x8511 $x6742)))))))))))
(assert
 (let (($x4409 (= cell_4_1 1)))
 (or $x4409 (= cell_4_1 2) (= cell_4_1 3) (= cell_4_1 4) (= cell_4_1 5) (= cell_4_1 6) (= cell_4_1 7) (= cell_4_1 8) (= cell_4_1 9))))
(assert
 (let (($x4199 (= cell_5_1 9)))
 (let (($x9344 (= cell_5_1 8)))
 (let (($x3475 (= cell_5_1 7)))
 (let (($x8334 (= cell_5_1 6)))
 (let (($x3197 (= cell_5_1 5)))
 (let (($x4361 (= cell_5_1 4)))
 (let (($x403 (= cell_5_1 3)))
 (let (($x6148 (= cell_5_1 2)))
 (let (($x4887 (= cell_5_1 1)))
 (or $x4887 $x6148 $x403 $x4361 $x3197 $x8334 $x3475 $x9344 $x4199)))))))))))
(assert
 (let (($x565 (= cell_6_1 9)))
 (let (($x4593 (= cell_6_1 8)))
 (let (($x4833 (= cell_6_1 7)))
 (let (($x8068 (= cell_6_1 6)))
 (let (($x5440 (= cell_6_1 5)))
 (let (($x445 (= cell_6_1 4)))
 (let (($x6825 (= cell_6_1 3)))
 (let (($x8450 (= cell_6_1 2)))
 (let (($x1531 (= cell_6_1 1)))
 (or $x1531 $x8450 $x6825 $x445 $x5440 $x8068 $x4833 $x4593 $x565)))))))))))
(assert
 (let (($x1466 (= cell_7_1 9)))
 (let (($x7913 (= cell_7_1 8)))
 (let (($x9789 (= cell_7_1 7)))
 (let (($x7736 (= cell_7_1 6)))
 (let (($x1682 (= cell_7_1 5)))
 (let (($x5243 (= cell_7_1 4)))
 (let (($x3034 (= cell_7_1 3)))
 (let (($x692 (= cell_7_1 2)))
 (let (($x3823 (= cell_7_1 1)))
 (or $x3823 $x692 $x3034 $x5243 $x1682 $x7736 $x9789 $x7913 $x1466)))))))))))
(assert
 (let (($x4762 (= cell_8_1 1)))
 (or $x4762 (= cell_8_1 2) (= cell_8_1 3) (= cell_8_1 4) (= cell_8_1 5) (= cell_8_1 6) (= cell_8_1 7) (= cell_8_1 8) (= cell_8_1 9))))
(assert
 (let (($x5549 (= cell_9_1 1)))
 (or $x5549 (= cell_9_1 2) (= cell_9_1 3) (= cell_9_1 4) (= cell_9_1 5) (= cell_9_1 6) (= cell_9_1 7) (= cell_9_1 8) (= cell_9_1 9))))
(assert
 (let (($x6746 (= cell_1_2 9)))
 (let (($x6230 (= cell_1_2 8)))
 (let (($x7113 (= cell_1_2 7)))
 (let (($x5326 (= cell_1_2 6)))
 (let (($x6519 (= cell_1_2 5)))
 (let (($x8292 (= cell_1_2 4)))
 (let (($x3144 (= cell_1_2 3)))
 (let (($x1198 (= cell_1_2 2)))
 (let (($x5024 (= cell_1_2 1)))
 (or $x5024 $x1198 $x3144 $x8292 $x6519 $x5326 $x7113 $x6230 $x6746)))))))))))
(assert
 (let (($x5307 (= cell_2_2 9)))
 (let (($x8319 (= cell_2_2 8)))
 (let (($x1921 (= cell_2_2 7)))
 (let (($x9998 (= cell_2_2 6)))
 (let (($x8675 (= cell_2_2 5)))
 (let (($x1677 (= cell_2_2 4)))
 (let (($x1259 (= cell_2_2 3)))
 (let (($x7476 (= cell_2_2 2)))
 (let (($x854 (= cell_2_2 1)))
 (or $x854 $x7476 $x1259 $x1677 $x8675 $x9998 $x1921 $x8319 $x5307)))))))))))
(assert
 (let (($x2238 (= cell_3_2 9)))
 (let (($x8461 (= cell_3_2 8)))
 (let (($x3688 (= cell_3_2 7)))
 (let (($x10031 (= cell_3_2 6)))
 (let (($x7953 (= cell_3_2 5)))
 (let (($x3049 (= cell_3_2 4)))
 (let (($x595 (= cell_3_2 3)))
 (let (($x2191 (= cell_3_2 2)))
 (let (($x7286 (= cell_3_2 1)))
 (or $x7286 $x2191 $x595 $x3049 $x7953 $x10031 $x3688 $x8461 $x2238)))))))))))
(assert
 (let (($x8848 (= cell_4_2 9)))
 (let (($x2077 (= cell_4_2 8)))
 (let (($x7449 (= cell_4_2 7)))
 (let (($x8741 (= cell_4_2 6)))
 (let (($x6957 (= cell_4_2 5)))
 (let (($x1734 (= cell_4_2 4)))
 (let (($x5863 (= cell_4_2 3)))
 (let (($x328 (= cell_4_2 2)))
 (let (($x2044 (= cell_4_2 1)))
 (or $x2044 $x328 $x5863 $x1734 $x6957 $x8741 $x7449 $x2077 $x8848)))))))))))
(assert
 (let (($x8298 (= cell_5_2 9)))
 (let (($x818 (= cell_5_2 8)))
 (let (($x7648 (= cell_5_2 7)))
 (let (($x16 (= cell_5_2 6)))
 (let (($x6857 (= cell_5_2 5)))
 (let (($x1240 (= cell_5_2 4)))
 (let (($x6958 (= cell_5_2 3)))
 (let (($x2473 (= cell_5_2 2)))
 (let (($x3684 (= cell_5_2 1)))
 (or $x3684 $x2473 $x6958 $x1240 $x6857 $x16 $x7648 $x818 $x8298)))))))))))
(assert
 (let (($x5004 (= cell_6_2 9)))
 (let (($x2933 (= cell_6_2 8)))
 (let (($x6336 (= cell_6_2 7)))
 (let (($x6259 (= cell_6_2 6)))
 (let (($x7108 (= cell_6_2 5)))
 (let (($x5989 (= cell_6_2 4)))
 (let (($x3909 (= cell_6_2 3)))
 (let (($x4730 (= cell_6_2 2)))
 (let (($x9722 (= cell_6_2 1)))
 (or $x9722 $x4730 $x3909 $x5989 $x7108 $x6259 $x6336 $x2933 $x5004)))))))))))
(assert
 (let (($x4161 (= cell_7_2 1)))
 (or $x4161 (= cell_7_2 2) (= cell_7_2 3) (= cell_7_2 4) (= cell_7_2 5) (= cell_7_2 6) (= cell_7_2 7) (= cell_7_2 8) (= cell_7_2 9))))
(assert
 (let (($x6285 (= cell_8_2 1)))
 (or $x6285 (= cell_8_2 2) (= cell_8_2 3) (= cell_8_2 4) (= cell_8_2 5) (= cell_8_2 6) (= cell_8_2 7) (= cell_8_2 8) (= cell_8_2 9))))
(assert
 (let (($x2114 (= cell_9_2 1)))
 (or $x2114 (= cell_9_2 2) (= cell_9_2 3) (= cell_9_2 4) (= cell_9_2 5) (= cell_9_2 6) (= cell_9_2 7) (= cell_9_2 8) (= cell_9_2 9))))
(assert
 (let (($x9000 (= cell_1_3 1)))
 (or $x9000 (= cell_1_3 2) (= cell_1_3 3) (= cell_1_3 4) (= cell_1_3 5) (= cell_1_3 6) (= cell_1_3 7) (= cell_1_3 8) (= cell_1_3 9))))
(assert
 (let (($x7834 (= cell_2_3 9)))
 (let (($x5308 (= cell_2_3 8)))
 (let (($x3327 (= cell_2_3 7)))
 (let (($x8985 (= cell_2_3 6)))
 (let (($x3020 (= cell_2_3 5)))
 (let (($x592 (= cell_2_3 4)))
 (let (($x3398 (= cell_2_3 3)))
 (let (($x1438 (= cell_2_3 2)))
 (let (($x318 (= cell_2_3 1)))
 (or $x318 $x1438 $x3398 $x592 $x3020 $x8985 $x3327 $x5308 $x7834)))))))))))
(assert
 (let (($x8643 (= cell_3_3 9)))
 (let (($x7156 (= cell_3_3 8)))
 (let (($x8081 (= cell_3_3 7)))
 (let (($x1969 (= cell_3_3 6)))
 (let (($x2086 (= cell_3_3 5)))
 (let (($x9963 (= cell_3_3 4)))
 (let (($x3653 (= cell_3_3 3)))
 (let (($x7090 (= cell_3_3 2)))
 (let (($x9395 (= cell_3_3 1)))
 (or $x9395 $x7090 $x3653 $x9963 $x2086 $x1969 $x8081 $x7156 $x8643)))))))))))
(assert
 (let (($x355 (= cell_4_3 1)))
 (or $x355 (= cell_4_3 2) (= cell_4_3 3) (= cell_4_3 4) (= cell_4_3 5) (= cell_4_3 6) (= cell_4_3 7) (= cell_4_3 8) (= cell_4_3 9))))
(assert
 (let (($x5581 (= cell_5_3 9)))
 (let (($x1290 (= cell_5_3 8)))
 (let (($x9976 (= cell_5_3 7)))
 (let (($x132 (= cell_5_3 6)))
 (let (($x8555 (= cell_5_3 5)))
 (let (($x2644 (= cell_5_3 4)))
 (let (($x8353 (= cell_5_3 3)))
 (let (($x2686 (= cell_5_3 2)))
 (let (($x7149 (= cell_5_3 1)))
 (or $x7149 $x2686 $x8353 $x2644 $x8555 $x132 $x9976 $x1290 $x5581)))))))))))
(assert
 (let (($x3555 (= cell_6_3 9)))
 (let (($x7385 (= cell_6_3 8)))
 (let (($x2227 (= cell_6_3 7)))
 (let (($x8296 (= cell_6_3 6)))
 (let (($x1773 (= cell_6_3 5)))
 (let (($x7252 (= cell_6_3 4)))
 (let (($x3984 (= cell_6_3 3)))
 (let (($x2729 (= cell_6_3 2)))
 (let (($x4895 (= cell_6_3 1)))
 (or $x4895 $x2729 $x3984 $x7252 $x1773 $x8296 $x2227 $x7385 $x3555)))))))))))
(assert
 (let (($x6714 (= cell_7_3 1)))
 (or $x6714 (= cell_7_3 2) (= cell_7_3 3) (= cell_7_3 4) (= cell_7_3 5) (= cell_7_3 6) (= cell_7_3 7) (= cell_7_3 8) (= cell_7_3 9))))
(assert
 (let (($x9683 (= cell_8_3 1)))
 (or $x9683 (= cell_8_3 2) (= cell_8_3 3) (= cell_8_3 4) (= cell_8_3 5) (= cell_8_3 6) (= cell_8_3 7) (= cell_8_3 8) (= cell_8_3 9))))
(assert
 (let (($x2749 (= cell_9_3 1)))
 (or $x2749 (= cell_9_3 2) (= cell_9_3 3) (= cell_9_3 4) (= cell_9_3 5) (= cell_9_3 6) (= cell_9_3 7) (= cell_9_3 8) (= cell_9_3 9))))
(assert
 (let (($x4528 (= cell_1_4 9)))
 (let (($x10183 (= cell_1_4 8)))
 (let (($x4918 (= cell_1_4 7)))
 (let (($x9621 (= cell_1_4 6)))
 (let (($x2439 (= cell_1_4 5)))
 (let (($x250 (= cell_1_4 4)))
 (let (($x4060 (= cell_1_4 3)))
 (let (($x5556 (= cell_1_4 2)))
 (let (($x6322 (= cell_1_4 1)))
 (or $x6322 $x5556 $x4060 $x250 $x2439 $x9621 $x4918 $x10183 $x4528)))))))))))
(assert
 (let (($x7213 (= cell_2_4 1)))
 (or $x7213 (= cell_2_4 2) (= cell_2_4 3) (= cell_2_4 4) (= cell_2_4 5) (= cell_2_4 6) (= cell_2_4 7) (= cell_2_4 8) (= cell_2_4 9))))
(assert
 (let (($x8384 (= cell_3_4 9)))
 (let (($x4495 (= cell_3_4 8)))
 (let (($x1209 (= cell_3_4 7)))
 (let (($x4486 (= cell_3_4 6)))
 (let (($x4237 (= cell_3_4 5)))
 (let (($x306 (= cell_3_4 4)))
 (let (($x6257 (= cell_3_4 3)))
 (let (($x4977 (= cell_3_4 2)))
 (let (($x697 (= cell_3_4 1)))
 (or $x697 $x4977 $x6257 $x306 $x4237 $x4486 $x1209 $x4495 $x8384)))))))))))
(assert
 (let (($x7502 (= cell_4_4 9)))
 (let (($x687 (= cell_4_4 8)))
 (let (($x2682 (= cell_4_4 7)))
 (let (($x8362 (= cell_4_4 6)))
 (let (($x10193 (= cell_4_4 5)))
 (let (($x568 (= cell_4_4 4)))
 (let (($x6947 (= cell_4_4 3)))
 (let (($x2710 (= cell_4_4 2)))
 (let (($x4752 (= cell_4_4 1)))
 (or $x4752 $x2710 $x6947 $x568 $x10193 $x8362 $x2682 $x687 $x7502)))))))))))
(assert
 (let (($x2286 (= cell_5_4 9)))
 (let (($x8598 (= cell_5_4 8)))
 (let (($x8300 (= cell_5_4 7)))
 (let (($x5641 (= cell_5_4 6)))
 (let (($x1597 (= cell_5_4 5)))
 (let (($x4202 (= cell_5_4 4)))
 (let (($x3296 (= cell_5_4 3)))
 (let (($x3521 (= cell_5_4 2)))
 (let (($x1450 (= cell_5_4 1)))
 (or $x1450 $x3521 $x3296 $x4202 $x1597 $x5641 $x8300 $x8598 $x2286)))))))))))
(assert
 (let (($x9312 (= cell_6_4 9)))
 (let (($x1145 (= cell_6_4 8)))
 (let (($x1930 (= cell_6_4 7)))
 (let (($x920 (= cell_6_4 6)))
 (let (($x6490 (= cell_6_4 5)))
 (let (($x8159 (= cell_6_4 4)))
 (let (($x3621 (= cell_6_4 3)))
 (let (($x6404 (= cell_6_4 2)))
 (let (($x2545 (= cell_6_4 1)))
 (or $x2545 $x6404 $x3621 $x8159 $x6490 $x920 $x1930 $x1145 $x9312)))))))))))
(assert
 (let (($x5076 (= cell_7_4 1)))
 (or $x5076 (= cell_7_4 2) (= cell_7_4 3) (= cell_7_4 4) (= cell_7_4 5) (= cell_7_4 6) (= cell_7_4 7) (= cell_7_4 8) (= cell_7_4 9))))
(assert
 (let (($x9240 (= cell_8_4 1)))
 (or $x9240 (= cell_8_4 2) (= cell_8_4 3) (= cell_8_4 4) (= cell_8_4 5) (= cell_8_4 6) (= cell_8_4 7) (= cell_8_4 8) (= cell_8_4 9))))
(assert
 (let (($x6125 (= cell_9_4 1)))
 (or $x6125 (= cell_9_4 2) (= cell_9_4 3) (= cell_9_4 4) (= cell_9_4 5) (= cell_9_4 6) (= cell_9_4 7) (= cell_9_4 8) (= cell_9_4 9))))
(assert
 (let (($x4084 (= cell_1_5 9)))
 (let (($x6961 (= cell_1_5 8)))
 (let (($x2651 (= cell_1_5 7)))
 (let (($x9310 (= cell_1_5 6)))
 (let (($x7658 (= cell_1_5 5)))
 (let (($x4221 (= cell_1_5 4)))
 (let (($x7316 (= cell_1_5 3)))
 (let (($x7569 (= cell_1_5 2)))
 (let (($x7419 (= cell_1_5 1)))
 (or $x7419 $x7569 $x7316 $x4221 $x7658 $x9310 $x2651 $x6961 $x4084)))))))))))
(assert
 (let (($x5460 (= cell_2_5 1)))
 (or $x5460 (= cell_2_5 2) (= cell_2_5 3) (= cell_2_5 4) (= cell_2_5 5) (= cell_2_5 6) (= cell_2_5 7) (= cell_2_5 8) (= cell_2_5 9))))
(assert
 (let (($x5723 (= cell_3_5 9)))
 (let (($x4197 (= cell_3_5 8)))
 (let (($x391 (= cell_3_5 7)))
 (let (($x3989 (= cell_3_5 6)))
 (let (($x4616 (= cell_3_5 5)))
 (let (($x7440 (= cell_3_5 4)))
 (let (($x1467 (= cell_3_5 3)))
 (let (($x6929 (= cell_3_5 2)))
 (let (($x8910 (= cell_3_5 1)))
 (or $x8910 $x6929 $x1467 $x7440 $x4616 $x3989 $x391 $x4197 $x5723)))))))))))
(assert
 (let (($x9794 (= cell_4_5 9)))
 (let (($x4892 (= cell_4_5 8)))
 (let (($x5039 (= cell_4_5 7)))
 (let (($x6836 (= cell_4_5 6)))
 (let (($x2699 (= cell_4_5 5)))
 (let (($x9303 (= cell_4_5 4)))
 (let (($x1116 (= cell_4_5 3)))
 (let (($x3631 (= cell_4_5 2)))
 (let (($x6176 (= cell_4_5 1)))
 (or $x6176 $x3631 $x1116 $x9303 $x2699 $x6836 $x5039 $x4892 $x9794)))))))))))
(assert
 (let (($x1712 (= cell_5_5 9)))
 (let (($x1845 (= cell_5_5 8)))
 (let (($x3798 (= cell_5_5 7)))
 (let (($x10093 (= cell_5_5 6)))
 (let (($x473 (= cell_5_5 5)))
 (let (($x4456 (= cell_5_5 4)))
 (let (($x398 (= cell_5_5 3)))
 (let (($x1335 (= cell_5_5 2)))
 (let (($x7546 (= cell_5_5 1)))
 (or $x7546 $x1335 $x398 $x4456 $x473 $x10093 $x3798 $x1845 $x1712)))))))))))
(assert
 (let (($x8533 (= cell_6_5 9)))
 (let (($x7170 (= cell_6_5 8)))
 (let (($x1795 (= cell_6_5 7)))
 (let (($x3514 (= cell_6_5 6)))
 (let (($x4531 (= cell_6_5 5)))
 (let (($x9686 (= cell_6_5 4)))
 (let (($x1422 (= cell_6_5 3)))
 (let (($x2951 (= cell_6_5 2)))
 (let (($x8412 (= cell_6_5 1)))
 (or $x8412 $x2951 $x1422 $x9686 $x4531 $x3514 $x1795 $x7170 $x8533)))))))))))
(assert
 (let (($x6446 (= cell_7_5 1)))
 (or $x6446 (= cell_7_5 2) (= cell_7_5 3) (= cell_7_5 4) (= cell_7_5 5) (= cell_7_5 6) (= cell_7_5 7) (= cell_7_5 8) (= cell_7_5 9))))
(assert
 (let (($x2520 (= cell_8_5 1)))
 (or $x2520 (= cell_8_5 2) (= cell_8_5 3) (= cell_8_5 4) (= cell_8_5 5) (= cell_8_5 6) (= cell_8_5 7) (= cell_8_5 8) (= cell_8_5 9))))
(assert
 (or (= cell_9_5 1) (= cell_9_5 2) (= cell_9_5 3) (= cell_9_5 4) (= cell_9_5 5) (= cell_9_5 6) (= cell_9_5 7) (= cell_9_5 8) (= cell_9_5 9)))
(assert
 (let (($x3600 (= cell_1_6 9)))
 (let (($x639 (= cell_1_6 8)))
 (let (($x6916 (= cell_1_6 7)))
 (let (($x9248 (= cell_1_6 6)))
 (let (($x8302 (= cell_1_6 5)))
 (let (($x2685 (= cell_1_6 4)))
 (let (($x9747 (= cell_1_6 3)))
 (let (($x1936 (= cell_1_6 2)))
 (let (($x9075 (= cell_1_6 1)))
 (or $x9075 $x1936 $x9747 $x2685 $x8302 $x9248 $x6916 $x639 $x3600)))))))))))
(assert
 (let (($x3097 (= cell_2_6 9)))
 (let (($x1639 (= cell_2_6 8)))
 (let (($x1883 (= cell_2_6 7)))
 (let (($x3189 (= cell_2_6 6)))
 (let (($x2706 (= cell_2_6 5)))
 (let (($x1149 (= cell_2_6 4)))
 (let (($x1528 (= cell_2_6 3)))
 (let (($x4381 (= cell_2_6 2)))
 (let (($x5886 (= cell_2_6 1)))
 (or $x5886 $x4381 $x1528 $x1149 $x2706 $x3189 $x1883 $x1639 $x3097)))))))))))
(assert
 (let (($x9659 (= cell_3_6 9)))
 (let (($x7131 (= cell_3_6 8)))
 (let (($x4014 (= cell_3_6 7)))
 (let (($x2144 (= cell_3_6 6)))
 (let (($x8799 (= cell_3_6 5)))
 (let (($x7682 (= cell_3_6 4)))
 (let (($x5232 (= cell_3_6 3)))
 (let (($x5323 (= cell_3_6 2)))
 (let (($x7804 (= cell_3_6 1)))
 (or $x7804 $x5323 $x5232 $x7682 $x8799 $x2144 $x4014 $x7131 $x9659)))))))))))
(assert
 (let (($x3811 (= cell_4_6 9)))
 (let (($x2547 (= cell_4_6 8)))
 (let (($x9265 (= cell_4_6 7)))
 (let (($x4498 (= cell_4_6 6)))
 (let (($x10225 (= cell_4_6 5)))
 (let (($x1527 (= cell_4_6 4)))
 (let (($x3198 (= cell_4_6 3)))
 (let (($x7154 (= cell_4_6 2)))
 (let (($x3830 (= cell_4_6 1)))
 (or $x3830 $x7154 $x3198 $x1527 $x10225 $x4498 $x9265 $x2547 $x3811)))))))))))
(assert
 (let (($x24 (= cell_5_6 9)))
 (let (($x9293 (= cell_5_6 8)))
 (let (($x9439 (= cell_5_6 7)))
 (let (($x3654 (= cell_5_6 6)))
 (let (($x2887 (= cell_5_6 5)))
 (let (($x6014 (= cell_5_6 4)))
 (let (($x5200 (= cell_5_6 3)))
 (let (($x7929 (= cell_5_6 2)))
 (let (($x1929 (= cell_5_6 1)))
 (or $x1929 $x7929 $x5200 $x6014 $x2887 $x3654 $x9439 $x9293 $x24)))))))))))
(assert
 (let (($x5108 (= cell_6_6 1)))
 (or $x5108 (= cell_6_6 2) (= cell_6_6 3) (= cell_6_6 4) (= cell_6_6 5) (= cell_6_6 6) (= cell_6_6 7) (= cell_6_6 8) (= cell_6_6 9))))
(assert
 (let (($x7821 (= cell_7_6 1)))
 (or $x7821 (= cell_7_6 2) (= cell_7_6 3) (= cell_7_6 4) (= cell_7_6 5) (= cell_7_6 6) (= cell_7_6 7) (= cell_7_6 8) (= cell_7_6 9))))
(assert
 (let (($x2505 (= cell_8_6 1)))
 (or $x2505 (= cell_8_6 2) (= cell_8_6 3) (= cell_8_6 4) (= cell_8_6 5) (= cell_8_6 6) (= cell_8_6 7) (= cell_8_6 8) (= cell_8_6 9))))
(assert
 (let (($x5229 (= cell_9_6 1)))
 (or $x5229 (= cell_9_6 2) (= cell_9_6 3) (= cell_9_6 4) (= cell_9_6 5) (= cell_9_6 6) (= cell_9_6 7) (= cell_9_6 8) (= cell_9_6 9))))
(assert
 (let (($x4911 (= cell_1_7 9)))
 (let (($x3948 (= cell_1_7 8)))
 (let (($x7390 (= cell_1_7 7)))
 (let (($x3261 (= cell_1_7 6)))
 (let (($x9087 (= cell_1_7 5)))
 (let (($x2303 (= cell_1_7 4)))
 (let (($x6344 (= cell_1_7 3)))
 (let (($x8887 (= cell_1_7 2)))
 (let (($x5823 (= cell_1_7 1)))
 (or $x5823 $x8887 $x6344 $x2303 $x9087 $x3261 $x7390 $x3948 $x4911)))))))))))
(assert
 (let (($x4507 (= cell_2_7 9)))
 (let (($x9230 (= cell_2_7 8)))
 (let (($x6609 (= cell_2_7 7)))
 (let (($x4212 (= cell_2_7 6)))
 (let (($x1341 (= cell_2_7 5)))
 (let (($x7557 (= cell_2_7 4)))
 (let (($x2070 (= cell_2_7 3)))
 (let (($x2576 (= cell_2_7 2)))
 (let (($x4130 (= cell_2_7 1)))
 (or $x4130 $x2576 $x2070 $x7557 $x1341 $x4212 $x6609 $x9230 $x4507)))))))))))
(assert
 (let (($x10292 (= cell_3_7 9)))
 (let (($x7539 (= cell_3_7 8)))
 (let (($x3844 (= cell_3_7 7)))
 (let (($x454 (= cell_3_7 6)))
 (let (($x894 (= cell_3_7 5)))
 (let (($x8462 (= cell_3_7 4)))
 (let (($x7242 (= cell_3_7 3)))
 (let (($x9938 (= cell_3_7 2)))
 (let (($x7339 (= cell_3_7 1)))
 (or $x7339 $x9938 $x7242 $x8462 $x894 $x454 $x3844 $x7539 $x10292)))))))))))
(assert
 (let (($x2320 (= cell_4_7 9)))
 (let (($x5422 (= cell_4_7 8)))
 (let (($x9306 (= cell_4_7 7)))
 (let (($x5337 (= cell_4_7 6)))
 (let (($x1904 (= cell_4_7 5)))
 (let (($x6827 (= cell_4_7 4)))
 (let (($x6486 (= cell_4_7 3)))
 (let (($x4699 (= cell_4_7 2)))
 (let (($x5522 (= cell_4_7 1)))
 (or $x5522 $x4699 $x6486 $x6827 $x1904 $x5337 $x9306 $x5422 $x2320)))))))))))
(assert
 (let (($x5273 (= cell_5_7 9)))
 (let (($x5672 (= cell_5_7 8)))
 (let (($x8304 (= cell_5_7 7)))
 (let (($x5839 (= cell_5_7 6)))
 (let (($x215 (= cell_5_7 5)))
 (let (($x3763 (= cell_5_7 4)))
 (let (($x9913 (= cell_5_7 3)))
 (let (($x5580 (= cell_5_7 2)))
 (let (($x2588 (= cell_5_7 1)))
 (or $x2588 $x5580 $x9913 $x3763 $x215 $x5839 $x8304 $x5672 $x5273)))))))))))
(assert
 (let (($x3770 (= cell_6_7 1)))
 (or $x3770 (= cell_6_7 2) (= cell_6_7 3) (= cell_6_7 4) (= cell_6_7 5) (= cell_6_7 6) (= cell_6_7 7) (= cell_6_7 8) (= cell_6_7 9))))
(assert
 (let (($x1742 (= cell_7_7 1)))
 (or $x1742 (= cell_7_7 2) (= cell_7_7 3) (= cell_7_7 4) (= cell_7_7 5) (= cell_7_7 6) (= cell_7_7 7) (= cell_7_7 8) (= cell_7_7 9))))
(assert
 (or (= cell_8_7 1) (= cell_8_7 2) (= cell_8_7 3) (= cell_8_7 4) (= cell_8_7 5) (= cell_8_7 6) (= cell_8_7 7) (= cell_8_7 8) (= cell_8_7 9)))
(assert
 (or (= cell_9_7 1) (= cell_9_7 2) (= cell_9_7 3) (= cell_9_7 4) (= cell_9_7 5) (= cell_9_7 6) (= cell_9_7 7) (= cell_9_7 8) (= cell_9_7 9)))
(assert
 (let (($x5942 (= cell_1_8 9)))
 (let (($x6249 (= cell_1_8 8)))
 (let (($x9225 (= cell_1_8 7)))
 (let (($x9069 (= cell_1_8 6)))
 (let (($x3639 (= cell_1_8 5)))
 (let (($x49 (= cell_1_8 4)))
 (let (($x3731 (= cell_1_8 3)))
 (let (($x711 (= cell_1_8 2)))
 (let (($x8617 (= cell_1_8 1)))
 (or $x8617 $x711 $x3731 $x49 $x3639 $x9069 $x9225 $x6249 $x5942)))))))))))
(assert
 (let (($x5423 (= cell_2_8 9)))
 (let (($x5855 (= cell_2_8 8)))
 (let (($x4866 (= cell_2_8 7)))
 (let (($x6554 (= cell_2_8 6)))
 (let (($x2031 (= cell_2_8 5)))
 (let (($x2782 (= cell_2_8 4)))
 (let (($x923 (= cell_2_8 3)))
 (let (($x6733 (= cell_2_8 2)))
 (let (($x288 (= cell_2_8 1)))
 (or $x288 $x6733 $x923 $x2782 $x2031 $x6554 $x4866 $x5855 $x5423)))))))))))
(assert
 (let (($x432 (= cell_3_8 1)))
 (or $x432 (= cell_3_8 2) (= cell_3_8 3) (= cell_3_8 4) (= cell_3_8 5) (= cell_3_8 6) (= cell_3_8 7) (= cell_3_8 8) (= cell_3_8 9))))
(assert
 (let (($x8277 (= cell_4_8 9)))
 (let (($x2312 (= cell_4_8 8)))
 (let (($x4870 (= cell_4_8 7)))
 (let (($x1881 (= cell_4_8 6)))
 (let (($x6562 (= cell_4_8 5)))
 (let (($x1943 (= cell_4_8 4)))
 (let (($x3439 (= cell_4_8 3)))
 (let (($x3444 (= cell_4_8 2)))
 (let (($x5693 (= cell_4_8 1)))
 (or $x5693 $x3444 $x3439 $x1943 $x6562 $x1881 $x4870 $x2312 $x8277)))))))))))
(assert
 (let (($x2739 (= cell_5_8 9)))
 (let (($x1705 (= cell_5_8 8)))
 (let (($x1898 (= cell_5_8 7)))
 (let (($x299 (= cell_5_8 6)))
 (let (($x8164 (= cell_5_8 5)))
 (let (($x3438 (= cell_5_8 4)))
 (let (($x9566 (= cell_5_8 3)))
 (let (($x4460 (= cell_5_8 2)))
 (let (($x9670 (= cell_5_8 1)))
 (or $x9670 $x4460 $x9566 $x3438 $x8164 $x299 $x1898 $x1705 $x2739)))))))))))
(assert
 (let (($x3864 (= cell_6_8 1)))
 (or $x3864 (= cell_6_8 2) (= cell_6_8 3) (= cell_6_8 4) (= cell_6_8 5) (= cell_6_8 6) (= cell_6_8 7) (= cell_6_8 8) (= cell_6_8 9))))
(assert
 (let (($x2736 (= cell_7_8 1)))
 (or $x2736 (= cell_7_8 2) (= cell_7_8 3) (= cell_7_8 4) (= cell_7_8 5) (= cell_7_8 6) (= cell_7_8 7) (= cell_7_8 8) (= cell_7_8 9))))
(assert
 (let (($x5414 (= cell_8_8 1)))
 (or $x5414 (= cell_8_8 2) (= cell_8_8 3) (= cell_8_8 4) (= cell_8_8 5) (= cell_8_8 6) (= cell_8_8 7) (= cell_8_8 8) (= cell_8_8 9))))
(assert
 (let (($x9814 (= cell_9_8 1)))
 (or $x9814 (= cell_9_8 2) (= cell_9_8 3) (= cell_9_8 4) (= cell_9_8 5) (= cell_9_8 6) (= cell_9_8 7) (= cell_9_8 8) (= cell_9_8 9))))
(assert
 (let (($x7437 (= cell_1_9 9)))
 (let (($x4028 (= cell_1_9 8)))
 (let (($x9007 (= cell_1_9 7)))
 (let (($x3380 (= cell_1_9 6)))
 (let (($x933 (= cell_1_9 5)))
 (let (($x5068 (= cell_1_9 4)))
 (let (($x261 (= cell_1_9 3)))
 (let (($x1726 (= cell_1_9 2)))
 (let (($x6356 (= cell_1_9 1)))
 (or $x6356 $x1726 $x261 $x5068 $x933 $x3380 $x9007 $x4028 $x7437)))))))))))
(assert
 (let (($x8191 (= cell_2_9 9)))
 (let (($x8692 (= cell_2_9 8)))
 (let (($x2830 (= cell_2_9 7)))
 (let (($x1102 (= cell_2_9 6)))
 (let (($x8946 (= cell_2_9 5)))
 (let (($x2180 (= cell_2_9 4)))
 (let (($x10020 (= cell_2_9 3)))
 (let (($x460 (= cell_2_9 2)))
 (let (($x6097 (= cell_2_9 1)))
 (or $x6097 $x460 $x10020 $x2180 $x8946 $x1102 $x2830 $x8692 $x8191)))))))))))
(assert
 (let (($x6502 (= cell_3_9 9)))
 (let (($x4299 (= cell_3_9 8)))
 (let (($x6333 (= cell_3_9 7)))
 (let (($x9778 (= cell_3_9 6)))
 (let (($x5609 (= cell_3_9 5)))
 (let (($x9120 (= cell_3_9 4)))
 (let (($x9665 (= cell_3_9 3)))
 (let (($x4926 (= cell_3_9 2)))
 (let (($x852 (= cell_3_9 1)))
 (or $x852 $x4926 $x9665 $x9120 $x5609 $x9778 $x6333 $x4299 $x6502)))))))))))
(assert
 (let (($x956 (= cell_4_9 9)))
 (let (($x2391 (= cell_4_9 8)))
 (let (($x6215 (= cell_4_9 7)))
 (let (($x4604 (= cell_4_9 6)))
 (let (($x3959 (= cell_4_9 5)))
 (let (($x5202 (= cell_4_9 4)))
 (let (($x2397 (= cell_4_9 3)))
 (let (($x2735 (= cell_4_9 2)))
 (let (($x2838 (= cell_4_9 1)))
 (or $x2838 $x2735 $x2397 $x5202 $x3959 $x4604 $x6215 $x2391 $x956)))))))))))
(assert
 (let (($x8370 (= cell_5_9 1)))
 (or $x8370 (= cell_5_9 2) (= cell_5_9 3) (= cell_5_9 4) (= cell_5_9 5) (= cell_5_9 6) (= cell_5_9 7) (= cell_5_9 8) (= cell_5_9 9))))
(assert
 (let (($x5999 (= cell_6_9 1)))
 (or $x5999 (= cell_6_9 2) (= cell_6_9 3) (= cell_6_9 4) (= cell_6_9 5) (= cell_6_9 6) (= cell_6_9 7) (= cell_6_9 8) (= cell_6_9 9))))
(assert
 (let (($x6195 (= cell_7_9 1)))
 (or $x6195 (= cell_7_9 2) (= cell_7_9 3) (= cell_7_9 4) (= cell_7_9 5) (= cell_7_9 6) (= cell_7_9 7) (= cell_7_9 8) (= cell_7_9 9))))
(assert
 (let (($x1478 (= cell_8_9 1)))
 (or $x1478 (= cell_8_9 2) (= cell_8_9 3) (= cell_8_9 4) (= cell_8_9 5) (= cell_8_9 6) (= cell_8_9 7) (= cell_8_9 8) (= cell_8_9 9))))
(assert
 (let (($x3870 (= cell_9_9 1)))
 (or $x3870 (= cell_9_9 2) (= cell_9_9 3) (= cell_9_9 4) (= cell_9_9 5) (= cell_9_9 6) (= cell_9_9 7) (= cell_9_9 8) (= cell_9_9 9))))
(assert
 (and (distinct cell_1_1 cell_1_2 cell_1_3 cell_1_4 cell_1_5 cell_1_6 cell_1_7 cell_1_8 cell_1_9) true))
(assert
 (and (distinct cell_2_1 cell_2_2 cell_2_3 cell_2_4 cell_2_5 cell_2_6 cell_2_7 cell_2_8 cell_2_9) true))
(assert
 (and (distinct cell_3_1 cell_3_2 cell_3_3 cell_3_4 cell_3_5 cell_3_6 cell_3_7 cell_3_8 cell_3_9) true))
(assert
 (and (distinct cell_4_1 cell_4_2 cell_4_3 cell_4_4 cell_4_5 cell_4_6 cell_4_7 cell_4_8 cell_4_9) true))
(assert
 (and (distinct cell_5_1 cell_5_2 cell_5_3 cell_5_4 cell_5_5 cell_5_6 cell_5_7 cell_5_8 cell_5_9) true))
(assert
 (and (distinct cell_6_1 cell_6_2 cell_6_3 cell_6_4 cell_6_5 cell_6_6 cell_6_7 cell_6_8 cell_6_9) true))
(assert
 (and (distinct cell_7_1 cell_7_2 cell_7_3 cell_7_4 cell_7_5 cell_7_6 cell_7_7 cell_7_8 cell_7_9) true))
(assert
 (and (distinct cell_8_1 cell_8_2 cell_8_3 cell_8_4 cell_8_5 cell_8_6 cell_8_7 cell_8_8 cell_8_9) true))
(assert
 (and (distinct cell_9_1 cell_9_2 cell_9_3 cell_9_4 cell_9_5 cell_9_6 cell_9_7 cell_9_8 cell_9_9) true))
(assert
 (and (distinct cell_1_1 cell_2_1 cell_3_1 cell_4_1 cell_5_1 cell_6_1 cell_7_1 cell_8_1 cell_9_1) true))
(assert
 (and (distinct cell_1_2 cell_2_2 cell_3_2 cell_4_2 cell_5_2 cell_6_2 cell_7_2 cell_8_2 cell_9_2) true))
(assert
 (and (distinct cell_1_3 cell_2_3 cell_3_3 cell_4_3 cell_5_3 cell_6_3 cell_7_3 cell_8_3 cell_9_3) true))
(assert
 (and (distinct cell_1_4 cell_2_4 cell_3_4 cell_4_4 cell_5_4 cell_6_4 cell_7_4 cell_8_4 cell_9_4) true))
(assert
 (and (distinct cell_1_5 cell_2_5 cell_3_5 cell_4_5 cell_5_5 cell_6_5 cell_7_5 cell_8_5 cell_9_5) true))
(assert
 (and (distinct cell_1_6 cell_2_6 cell_3_6 cell_4_6 cell_5_6 cell_6_6 cell_7_6 cell_8_6 cell_9_6) true))
(assert
 (and (distinct cell_1_7 cell_2_7 cell_3_7 cell_4_7 cell_5_7 cell_6_7 cell_7_7 cell_8_7 cell_9_7) true))
(assert
 (and (distinct cell_1_8 cell_2_8 cell_3_8 cell_4_8 cell_5_8 cell_6_8 cell_7_8 cell_8_8 cell_9_8) true))
(assert
 (and (distinct cell_1_9 cell_2_9 cell_3_9 cell_4_9 cell_5_9 cell_6_9 cell_7_9 cell_8_9 cell_9_9) true))
(assert
 (and (distinct cell_1_1 cell_1_2 cell_1_3 cell_2_1 cell_2_2 cell_2_3 cell_3_1 cell_3_2 cell_3_3) true))
(assert
 (and (distinct cell_1_4 cell_1_5 cell_1_6 cell_2_4 cell_2_5 cell_2_6 cell_3_4 cell_3_5 cell_3_6) true))
(assert
 (and (distinct cell_1_7 cell_1_8 cell_1_9 cell_2_7 cell_2_8 cell_2_9 cell_3_7 cell_3_8 cell_3_9) true))
(assert
 (and (distinct cell_4_1 cell_4_2 cell_4_3 cell_5_1 cell_5_2 cell_5_3 cell_6_1 cell_6_2 cell_6_3) true))
(assert
 (and (distinct cell_4_4 cell_4_5 cell_4_6 cell_5_4 cell_5_5 cell_5_6 cell_6_4 cell_6_5 cell_6_6) true))
(assert
 (and (distinct cell_4_7 cell_4_8 cell_4_9 cell_5_7 cell_5_8 cell_5_9 cell_6_7 cell_6_8 cell_6_9) true))
(assert
 (and (distinct cell_7_1 cell_7_2 cell_7_3 cell_8_1 cell_8_2 cell_8_3 cell_9_1 cell_9_2 cell_9_3) true))
(assert
 (and (distinct cell_7_4 cell_7_5 cell_7_6 cell_8_4 cell_8_5 cell_8_6 cell_9_4 cell_9_5 cell_9_6) true))
(assert
 (and (distinct cell_7_7 cell_7_8 cell_7_9 cell_8_7 cell_8_8 cell_8_9 cell_9_7 cell_9_8 cell_9_9) true))
(assert
 (let (($x5734 (and (distinct cell_5_9 cell_6_8 cell_7_7 cell_8_6) true)))
 (let (($x7373 (and (distinct cell_2_9 cell_3_8 cell_4_7 cell_5_6 cell_6_5 cell_7_4 cell_8_3 cell_9_2) true)))
 (let (($x1631 (and (distinct cell_1_8 cell_2_7 cell_3_6 cell_4_5 cell_5_4 cell_6_3 cell_7_2 cell_8_1) true)))
 (let (($x6754 (and (distinct cell_1_5 cell_2_4 cell_3_3 cell_4_2) true)))
 (let (($x1268 (and (distinct cell_5_1 cell_6_2 cell_7_3 cell_8_4) true)))
 (let (($x3151 (and (distinct cell_2_1 cell_3_2 cell_4_3 cell_5_4 cell_6_5 cell_7_6 cell_8_7 cell_9_8) true)))
 (let (($x726 (and (distinct cell_1_2 cell_2_3 cell_3_4 cell_4_5 cell_5_6 cell_6_7 cell_7_8 cell_8_9) true)))
 (let (($x6636 (and (distinct cell_1_5 cell_2_6 cell_3_7 cell_4_8) true)))
 (and $x6636 $x726 $x3151 $x1268 $x6754 $x1631 $x7373 $x5734))))))))))
(assert
 (= cell_8_5 1))
(check-sat)
